0 1
0 2
0 3
0 4
0 7
0 8
0 10
0 12
0 14
0 16
0 18
0 19
0 20
0 26
0 27
0 28
0 30
0 31
0 32
0 33
0 34
0 35
0 36
0 37
0 41
0 42
0 44
0 45
0 47
0 48
0 50
0 52
0 56
0 58
0 60
0 61
0 62
0 67
0 69
0 70
0 71
0 72
0 73
0 75
0 76
0 77
0 80
0 82
0 83
0 84
0 85
0 86
0 88
0 89
0 90
0 92
0 93
0 94
0 95
0 96
0 97
0 100
0 101
0 102
0 103
0 104
0 105
0 106
0 107
0 108
0 109
0 110
0 111
0 112
0 113
0 114
0 118
0 119
0 120
0 121
0 122
0 127
0 128
0 129
0 130
0 131
0 132
0 134
0 135
0 136
0 137
0 138
0 139
0 141
0 142
0 146
0 147
0 148
0 153
0 154
0 155
0 163
0 165
0 166
0 171
0 173
0 179
0 183
0 190
0 191
0 192
0 214
0 216
0 221
0 229
0 230
0 238
0 239
0 247
0 250
0 271
0 279
0 280
0 285
0 287
0 291
0 292
0 294
0 301
0 316
0 317
0 325
0 336
0 339
0 340
0 351
0 368
0 389
0 404
0 415
0 416
0 417
0 418
0 463
0 486
0 487
0 488
0 508
0 529
0 554
0 555
0 558
0 563
0 600
0 607
0 715
1 3
1 4
1 5
1 7
1 8
1 9
1 12
1 14
1 15
1 16
1 18
1 19
1 20
1 28
1 30
1 31
1 33
1 36
1 37
1 40
1 47
1 48
1 55
1 73
1 81
1 82
1 85
1 89
1 90
1 95
1 96
1 98
1 99
1 101
1 102
1 127
1 128
1 135
1 140
1 141
1 146
1 147
1 149
1 153
1 156
1 163
1 164
1 165
1 171
1 172
1 174
1 182
1 183
1 189
1 191
1 206
1 217
1 218
1 221
1 222
1 229
1 230
1 239
1 256
1 280
1 281
1 282
1 294
1 295
1 298
1 307
1 310
1 311
1 316
1 318
1 327
1 337
1 338
1 344
1 368
1 377
1 379
1 389
1 478
1 483
1 486
1 492
1 508
1 515
1 554
1 558
1 583
1 607
1 629
1 645
1 646
1 647
1 655
1 674
1 696
1 703
1 715
1 759
1 774
1 789
1 841
1 842
1 883
1 884
2 4
2 26
2 28
2 37
2 42
2 44
2 54
2 55
2 67
2 68
2 72
2 74
2 80
2 82
2 97
2 103
2 104
2 105
2 106
2 107
2 108
2 109
2 110
2 111
2 118
2 119
2 120
2 121
2 122
2 123
2 125
2 126
2 130
2 131
2 132
2 133
2 136
2 137
2 138
2 154
2 170
2 180
2 181
2 195
2 216
2 220
2 222
2 225
2 226
2 230
2 233
2 234
2 238
2 243
2 244
2 247
2 249
2 258
2 274
2 275
2 284
2 286
2 288
2 292
2 295
2 301
2 310
2 326
2 327
2 328
2 329
2 331
2 339
2 346
2 354
2 355
2 358
2 361
2 362
2 379
2 382
2 383
2 394
2 405
2 407
2 415
2 416
2 417
2 418
2 458
2 473
2 484
2 491
2 499
2 505
2 524
2 529
2 602
2 609
2 677
2 695
2 723
2 845
3 4
3 5
3 7
3 8
3 9
3 10
3 11
3 17
3 19
3 27
3 28
3 30
3 32
3 33
3 35
3 39
3 41
3 45
3 48
3 50
3 52
3 56
3 58
3 61
3 62
3 69
3 70
3 73
3 75
3 76
3 77
3 82
3 83
3 84
3 85
3 86
3 88
3 92
3 95
3 96
3 100
3 101
3 102
3 112
3 117
3 127
3 128
3 134
3 141
3 142
3 146
3 147
3 149
3 153
3 159
3 164
3 165
3 169
3 171
3 182
3 183
3 189
3 190
3 202
3 206
3 218
3 232
3 245
3 271
3 285
3 312
3 324
3 325
3 360
3 372
3 380
3 398
3 404
3 448
3 522
3 550
3 754
3 867
4 7
4 8
4 12
4 14
4 26
4 28
4 31
4 34
4 37
4 48
4 52
4 58
4 67
4 68
4 72
4 73
4 80
4 81
4 82
4 85
4 89
4 90
4 95
4 96
4 97
4 101
4 102
4 103
4 104
4 105
4 106
4 107
4 108
4 109
4 110
4 118
4 119
4 120
4 121
4 122
4 127
4 128
4 130
4 131
4 132
4 135
4 136
4 137
4 138
4 141
4 146
4 147
4 148
4 154
4 164
4 165
4 171
4 180
4 191
4 192
4 221
4 229
4 230
4 239
4 250
4 271
4 280
4 291
4 316
4 337
4 340
4 368
4 389
4 415
4 416
4 417
4 418
4 481
4 486
4 529
4 554
4 555
5 9
5 14
5 15
5 17
5 24
5 25
5 29
5 39
5 40
5 43
5 51
5 54
5 57
5 63
5 64
5 65
5 66
5 68
5 78
5 79
5 91
5 99
5 115
5 116
5 117
5 144
5 149
5 159
5 162
5 169
5 188
5 227
5 232
5 277
5 281
5 282
5 297
5 298
5 315
5 318
5 324
5 344
5 352
5 398
5 489
5 527
5 616
5 661
5 817
6 13
6 22
6 49
6 68
6 125
6 151
6 158
6 178
6 196
6 197
6 200
6 204
6 212
6 220
6 255
6 261
6 264
6 265
6 268
6 373
6 374
6 425
6 443
6 468
6 480
6 539
6 553
6 631
7 8
7 10
7 12
7 16
7 18
7 19
7 20
7 27
7 28
7 30
7 32
7 33
7 35
7 41
7 45
7 47
7 48
7 50
7 52
7 56
7 58
7 60
7 61
7 62
7 69
7 70
7 71
7 73
7 75
7 76
7 77
7 83
7 84
7 85
7 86
7 87
7 88
7 89
7 92
7 93
7 95
7 96
7 100
7 101
7 102
7 112
7 113
7 114
7 127
7 128
7 134
7 141
7 142
7 146
7 147
7 153
7 163
7 164
7 165
7 171
7 172
7 173
7 179
7 192
7 250
7 294
7 336
7 353
7 607
8 10
8 16
8 18
8 20
8 27
8 28
8 30
8 32
8 33
8 35
8 36
8 41
8 45
8 47
8 48
8 50
8 52
8 56
8 58
8 60
8 61
8 62
8 69
8 70
8 71
8 73
8 75
8 76
8 77
8 83
8 84
8 85
8 86
8 87
8 88
8 90
8 92
8 93
8 95
8 96
8 100
8 101
8 102
8 112
8 113
8 114
8 127
8 128
8 134
8 141
8 142
8 146
8 147
8 153
8 163
8 165
8 171
8 172
8 173
8 192
8 250
8 294
8 325
8 336
9 14
9 15
9 17
9 24
9 25
9 29
9 39
9 40
9 43
9 51
9 54
9 57
9 63
9 64
9 65
9 66
9 68
9 78
9 79
9 81
9 98
9 99
9 115
9 116
9 117
9 143
9 144
9 145
9 152
9 159
9 169
9 188
9 227
9 277
9 281
9 282
9 297
9 298
9 318
9 344
9 489
9 492
9 527
9 661
9 721
10 18
10 19
10 27
10 28
10 30
10 32
10 33
10 34
10 35
10 37
10 41
10 45
10 47
10 50
10 52
10 56
10 58
10 60
10 61
10 62
10 67
10 69
10 70
10 71
10 72
10 75
10 76
10 77
10 80
10 83
10 84
10 86
10 87
10 88
10 92
10 93
10 97
10 100
10 103
10 104
10 105
10 106
10 107
10 108
10 109
10 110
10 112
10 113
10 114
10 118
10 119
10 120
10 121
10 122
10 130
10 131
10 132
10 134
10 136
10 137
10 138
10 142
10 154
10 155
10 166
10 173
10 179
10 180
10 325
11 21
11 46
11 73
11 176
11 184
11 201
11 202
11 223
11 226
11 228
11 245
11 609
11 652
11 716
11 816
12 14
12 31
12 36
12 89
12 135
12 189
12 191
12 221
12 229
12 239
12 248
12 316
12 337
12 389
12 462
12 483
12 508
12 541
12 554
12 556
12 568
12 569
12 585
12 608
12 618
12 641
12 776
12 777
12 889
13 21
13 23
13 49
13 54
13 68
13 151
13 178
13 196
13 200
13 255
13 265
13 283
13 305
13 424
13 495
14 15
14 19
14 30
14 31
14 33
14 36
14 47
14 55
14 73
14 81
14 82
14 89
14 98
14 99
14 135
14 140
14 149
14 156
14 174
14 182
14 183
14 189
14 206
14 217
14 218
14 222
14 229
14 280
14 281
14 282
14 295
14 298
14 310
14 311
14 318
14 327
14 338
14 340
14 344
14 346
14 368
14 379
14 492
14 515
14 645
14 646
14 647
14 655
14 696
14 703
14 759
14 774
14 842
15 54
15 68
15 98
15 99
15 140
15 149
15 221
15 281
15 282
15 297
15 298
15 302
15 309
15 467
15 489
15 532
15 549
15 593
15 624
15 628
15 667
15 671
15 691
15 735
15 750
15 825
15 828
15 910
15 915
15 942
16 18
16 19
16 20
16 27
16 28
16 30
16 32
16 33
16 35
16 41
16 45
16 47
16 48
16 50
16 52
16 56
16 58
16 60
16 61
16 62
16 69
16 71
16 75
16 76
16 77
16 82
16 83
16 84
16 85
16 86
16 87
16 88
16 92
16 93
16 95
16 96
16 100
16 101
16 102
16 112
16 114
16 127
16 128
16 141
16 146
16 148
16 153
16 163
16 164
16 172
16 173
16 192
16 242
16 271
16 287
16 353
16 404
16 583
17 24
17 25
17 29
17 39
17 40
17 43
17 51
17 57
17 63
17 64
17 65
17 66
17 78
17 79
17 115
17 117
17 144
17 159
17 169
17 227
17 232
17 277
17 315
17 324
17 335
17 344
17 398
17 527
17 697
18 27
18 28
18 30
18 32
18 33
18 35
18 41
18 45
18 47
18 48
18 50
18 52
18 56
18 58
18 60
18 61
18 62
18 69
18 70
18 71
18 75
18 76
18 77
18 83
18 84
18 85
18 86
18 87
18 90
18 92
18 93
18 95
18 96
18 100
18 101
18 102
18 112
18 113
18 114
18 127
18 128
18 141
18 146
18 153
18 163
18 164
18 165
18 171
18 172
18 173
18 192
18 242
18 353
19 32
19 33
19 36
19 41
19 45
19 47
19 50
19 52
19 56
19 58
19 60
19 61
19 62
19 69
19 71
19 75
19 76
19 77
19 82
19 83
19 84
19 86
19 92
19 99
19 100
19 114
19 134
19 148
19 163
19 183
19 184
19 190
19 191
19 246
19 271
19 279
19 285
19 287
19 378
19 393
19 394
19 402
19 404
19 419
19 431
19 432
19 453
19 482
19 557
19 558
19 559
19 563
19 652
19 781
19 852
19 981
19 988
20 30
20 32
20 33
20 35
20 47
20 48
20 55
20 56
20 70
20 99
20 142
20 150
20 156
20 174
20 191
20 206
20 209
20 217
20 218
20 231
20 256
20 272
20 285
20 304
20 311
20 377
20 380
20 399
20 537
20 550
20 577
20 583
20 594
20 629
20 754
20 782
20 790
20 812
20 898
20 972
21 23
21 46
21 73
21 148
21 157
21 167
21 168
21 184
21 199
21 201
21 211
21 219
21 223
21 228
21 240
21 241
21 245
21 396
21 652
22 49
22 68
22 125
22 181
22 195
22 197
22 204
22 205
22 213
22 220
22 235
22 236
22 243
22 244
22 257
22 264
22 268
22 269
22 326
22 354
22 373
22 374
22 447
22 468
22 469
22 480
22 877
23 68
23 167
23 168
23 186
23 199
23 210
23 211
23 219
23 240
23 241
23 254
23 263
23 266
23 283
23 303
23 305
23 396
23 444
24 25
24 29
24 39
24 40
24 43
24 51
24 57
24 63
24 64
24 65
24 66
24 78
24 115
24 117
24 144
24 159
24 161
24 162
24 169
24 175
24 227
24 232
24 277
24 315
24 335
24 352
24 441
24 527
24 659
25 29
25 39
25 43
25 51
25 57
25 63
25 64
25 65
25 66
25 78
25 79
25 115
25 117
25 143
25 144
25 145
25 152
25 159
25 161
25 162
25 175
25 188
25 277
25 315
25 697
26 34
26 37
26 72
26 80
26 82
26 97
26 103
26 104
26 105
26 106
26 107
26 108
26 109
26 110
26 118
26 119
26 120
26 121
26 122
26 130
26 132
26 136
26 137
26 138
26 154
26 225
26 291
26 317
26 339
26 351
26 415
26 416
26 417
26 418
26 463
26 487
26 488
26 589
26 590
26 599
26 699
26 700
26 706
26 707
26 708
27 30
27 32
27 33
27 35
27 41
27 45
27 47
27 48
27 50
27 52
27 56
27 58
27 60
27 61
27 62
27 69
27 70
27 71
27 75
27 76
27 77
27 83
27 84
27 86
27 87
27 88
27 92
27 93
27 100
27 112
27 114
27 134
27 179
27 372
28 30
28 32
28 33
28 35
28 36
28 41
28 42
28 45
28 47
28 48
28 50
28 52
28 58
28 60
28 61
28 62
28 69
28 71
28 75
28 76
28 77
28 83
28 84
28 85
28 87
28 90
28 92
28 93
28 95
28 96
28 100
28 101
28 102
28 113
28 114
28 127
28 128
28 141
28 142
28 146
28 147
28 164
28 165
28 171
28 172
28 250
29 39
29 40
29 43
29 51
29 57
29 63
29 64
29 65
29 66
29 78
29 79
29 115
29 116
29 117
29 143
29 144
29 145
29 152
29 161
29 162
29 175
29 188
30 32
30 35
30 41
30 45
30 47
30 48
30 50
30 52
30 56
30 58
30 60
30 61
30 62
30 69
30 70
30 71
30 75
30 76
30 77
30 83
30 84
30 86
30 87
30 88
30 92
30 93
30 100
30 112
30 113
30 114
30 134
30 142
30 156
30 179
30 209
30 217
30 231
30 272
30 311
30 348
30 349
30 422
30 423
30 501
30 952
31 36
31 73
31 82
31 89
31 135
31 248
31 280
31 340
31 368
31 508
31 584
31 608
31 742
32 33
32 35
32 41
32 45
32 47
32 48
32 50
32 52
32 56
32 58
32 60
32 61
32 62
32 69
32 70
32 71
32 75
32 76
32 77
32 82
32 83
32 84
32 86
32 87
32 88
32 92
32 93
32 100
32 112
32 113
32 114
32 134
32 142
32 148
32 163
32 179
32 242
32 285
32 325
33 35
33 41
33 45
33 47
33 48
33 50
33 52
33 55
33 56
33 58
33 60
33 61
33 62
33 69
33 70
33 71
33 75
33 77
33 83
33 84
33 86
33 87
33 88
33 99
33 100
33 102
33 112
33 114
33 134
33 142
33 173
33 179
33 206
33 231
33 285
33 325
33 598
33 604
34 37
34 67
34 72
34 80
34 97
34 103
34 104
34 105
34 106
34 107
34 108
34 109
34 110
34 118
34 119
34 120
34 121
34 122
34 129
34 130
34 131
34 132
34 136
34 137
34 138
34 154
34 155
34 166
34 180
34 881
35 41
35 45
35 47
35 48
35 50
35 52
35 56
35 58
35 60
35 61
35 62
35 69
35 70
35 71
35 75
35 76
35 77
35 84
35 86
35 87
35 88
35 92
35 93
35 100
35 112
35 113
35 114
35 134
35 142
35 179
35 477
35 500
35 502
35 503
35 559
35 591
36 89
36 95
36 183
36 185
36 222
36 271
36 287
36 336
36 449
36 508
36 545
36 546
36 547
36 637
37 59
37 67
37 72
37 80
37 97
37 103
37 104
37 105
37 106
37 107
37 108
37 109
37 110
37 118
37 119
37 120
37 121
37 122
37 129
37 130
37 131
37 136
37 137
37 138
37 154
37 155
37 166
37 180
37 230
37 280
37 339
37 340
37 341
37 415
37 416
37 417
37 866
38 44
38 74
38 139
38 193
38 194
38 203
38 208
38 233
38 252
38 262
38 299
38 300
38 306
38 320
38 370
38 428
38 451
38 461
38 475
38 638
39 43
39 51
39 57
39 63
39 64
39 65
39 66
39 78
39 79
39 117
39 144
39 159
39 169
39 188
39 227
39 232
39 277
39 315
39 324
39 335
39 398
40 43
40 51
40 78
40 159
40 161
40 188
40 202
40 352
40 527
40 616
40 630
40 659
40 696
40 718
40 721
41 45
41 47
41 50
41 52
41 56
41 58
41 60
41 61
41 62
41 69
41 70
41 71
41 75
41 76
41 77
41 83
41 84
41 86
41 87
41 88
41 92
41 93
41 112
41 113
41 134
41 142
41 173
41 179
41 190
41 278
42 68
42 91
42 111
42 124
42 139
42 166
42 207
42 216
42 230
42 234
42 238
42 247
42 292
42 296
42 301
42 313
42 381
42 505
42 656
42 688
42 722
42 725
42 799
42 858
42 897
42 908
42 948
42 980
43 51
43 57
43 63
43 64
43 65
43 66
43 78
43 79
43 115
43 116
43 117
43 143
43 144
43 145
43 152
43 161
43 162
43 194
43 721
44 74
44 126
44 139
44 174
44 193
44 194
44 216
44 238
44 247
44 249
44 252
44 274
44 288
44 299
44 301
44 328
44 329
44 361
44 362
44 381
44 382
44 383
44 384
44 407
44 414
44 518
44 613
44 769
44 770
44 860
44 990
44 991
45 47
45 50
45 52
45 56
45 58
45 60
45 61
45 62
45 69
45 70
45 71
45 76
45 77
45 82
45 83
45 86
45 87
45 88
45 92
45 100
45 113
45 114
45 134
45 142
45 148
45 174
45 256
45 280
45 669
45 729
46 73
46 148
46 176
46 184
46 190
46 201
46 202
46 273
47 50
47 52
47 56
47 58
47 60
47 61
47 62
47 69
47 70
47 71
47 75
47 76
47 77
47 83
47 84
47 86
47 87
47 88
47 92
47 100
47 112
47 113
47 114
47 142
47 156
47 173
47 231
47 242
47 353
48 56
48 61
48 62
48 69
48 70
48 75
48 77
48 84
48 85
48 88
48 90
48 95
48 96
48 100
48 101
48 102
48 112
48 127
48 128
48 134
48 141
48 146
48 147
48 153
48 163
48 165
48 172
48 191
48 285
48 325
49 54
49 125
49 157
49 167
49 181
49 196
49 197
49 204
49 220
49 235
49 236
49 243
49 257
49 258
49 261
49 263
49 266
49 268
49 269
49 308
49 326
49 354
49 355
49 356
49 357
49 469
50 52
50 56
50 58
50 60
50 61
50 62
50 69
50 70
50 71
50 75
50 76
50 77
50 83
50 84
50 86
50 87
50 88
50 92
50 100
50 112
50 113
50 114
50 134
50 142
50 173
50 179
50 285
50 325
51 57
51 63
51 64
51 65
51 66
51 78
51 79
51 115
51 116
51 143
51 144
51 145
51 152
51 159
51 162
51 169
51 227
52 56
52 58
52 60
52 61
52 62
52 69
52 70
52 71
52 75
52 76
52 77
52 82
52 83
52 84
52 86
52 87
52 88
52 92
52 93
52 100
52 112
52 113
52 114
52 134
52 142
52 148
52 280
53 94
53 111
53 123
53 124
53 133
53 170
53 177
53 225
53 237
53 251
53 260
53 275
53 276
53 289
53 313
53 330
53 331
53 363
53 364
53 366
53 408
53 457
53 458
53 459
53 460
53 519
53 520
53 566
53 614
53 726
53 771
53 784
54 98
54 99
54 125
54 149
54 157
54 181
54 199
54 213
54 235
54 236
54 237
54 243
54 244
54 258
54 281
54 282
54 297
54 298
54 308
54 344
54 357
54 358
54 426
54 441
54 447
54 489
54 499
54 532
55 98
55 99
55 156
55 174
55 182
55 189
55 206
55 217
55 222
55 231
55 256
55 272
55 295
55 307
55 310
55 318
55 327
55 338
55 346
55 379
55 483
55 507
55 514
55 515
55 517
55 577
55 606
55 650
55 703
55 878
56 58
56 60
56 61
56 62
56 69
56 70
56 71
56 75
56 76
56 77
56 83
56 84
56 86
56 87
56 88
56 92
56 100
56 113
56 114
56 134
56 142
56 172
56 179
56 687
57 63
57 64
57 65
57 66
57 78
57 79
57 115
57 116
57 117
57 143
57 144
57 145
57 152
57 161
57 162
57 175
58 60
58 61
58 62
58 69
58 70
58 71
58 76
58 77
58 82
58 83
58 84
58 86
58 87
58 88
58 100
58 113
58 114
58 134
58 142
58 148
58 280
59 341
59 602
59 763
59 795
60 61
60 69
60 70
60 71
60 75
60 76
60 77
60 83
60 84
60 86
60 87
60 88
60 92
60 93
60 100
60 112
60 113
60 114
60 142
60 173
60 242
60 353
61 62
61 69
61 70
61 71
61 75
61 76
61 77
61 83
61 84
61 86
61 87
61 88
61 92
61 100
61 112
61 113
61 114
61 134
61 142
61 179
61 325
62 69
62 70
62 71
62 75
62 76
62 77
62 83
62 84
62 86
62 87
62 88
62 92
62 93
62 100
62 112
62 113
62 114
62 134
62 142
62 179
62 325
63 64
63 65
63 66
63 78
63 79
63 115
63 116
63 117
63 143
63 144
63 145
63 152
63 161
63 162
63 175
64 65
64 66
64 78
64 79
64 115
64 116
64 117
64 143
64 144
64 152
64 161
64 162
64 175
65 66
65 78
65 79
65 115
65 116
65 117
65 143
65 144
65 145
65 152
65 161
65 162
65 175
66 78
66 79
66 115
66 116
66 117
66 143
66 144
66 145
66 152
66 161
66 162
66 175
67 68
67 72
67 80
67 97
67 103
67 104
67 105
67 106
67 107
67 108
67 109
67 110
67 119
67 120
67 121
67 129
67 130
67 131
67 132
67 137
67 180
67 319
67 414
68 81
68 124
68 195
68 204
68 220
68 281
68 283
68 298
68 305
68 318
68 344
68 374
68 468
69 70
69 71
69 75
69 76
69 77
69 83
69 84
69 86
69 87
69 88
69 92
69 93
69 100
69 113
69 114
69 134
69 142
69 179
70 71
70 75
70 76
70 77
70 83
70 84
70 86
70 87
70 88
70 92
70 93
70 100
70 112
70 114
70 134
70 173
70 179
70 325
71 75
71 76
71 77
71 83
71 84
71 86
71 87
71 88
71 92
71 93
71 100
71 112
71 113
71 114
71 142
71 173
71 242
71 353
72 80
72 97
72 103
72 104
72 105
72 106
72 107
72 108
72 109
72 110
72 118
72 119
72 120
72 121
72 122
72 129
72 130
72 131
72 132
72 136
72 137
72 138
72 154
72 291
72 317
72 351
72 463
72 487
72 488
73 82
73 85
73 90
73 95
73 96
73 101
73 102
73 127
73 128
73 141
73 146
73 147
73 148
73 164
73 165
73 171
73 280
73 294
74 126
74 139
74 193
74 194
74 203
74 205
74 208
74 233
74 249
74 252
74 253
74 262
74 274
74 275
74 288
74 299
74 300
74 306
74 320
74 329
74 350
74 361
74 362
74 369
74 382
74 383
74 407
74 427
74 428
74 450
74 451
74 475
74 506
74 596
75 76
75 77
75 83
75 84
75 87
75 88
75 92
75 93
75 100
75 112
75 113
75 114
75 134
75 142
75 179
75 325
76 77
76 83
76 84
76 86
76 87
76 88
76 92
76 93
76 100
76 112
76 113
76 114
76 134
76 142
76 179
77 83
77 84
77 86
77 87
77 88
77 92
77 93
77 112
77 113
77 134
77 142
77 179
78 115
78 117
78 143
78 144
78 145
78 152
78 161
78 162
78 175
79 115
79 116
79 117
79 143
79 144
79 145
79 152
79 161
79 162
79 175
80 97
80 103
80 104
80 105
80 106
80 107
80 108
80 109
80 110
80 118
80 119
80 120
80 121
80 122
80 130
80 131
80 132
80 136
80 137
80 138
80 154
80 155
80 166
80 180
80 971
81 111
81 123
81 133
81 149
81 160
81 221
81 224
81 251
81 284
81 289
81 298
81 301
81 318
81 344
81 481
81 492
81 504
81 531
81 684
81 685
81 686
81 760
81 826
82 102
82 129
82 135
82 148
82 183
82 190
82 229
82 271
82 279
82 280
82 287
82 340
82 368
82 415
82 416
82 417
82 418
82 529
82 555
83 84
83 86
83 87
83 88
83 92
83 93
83 112
83 113
83 134
83 142
83 179
84 87
84 88
84 92
84 93
84 112
84 113
84 134
84 142
84 179
85 90
85 95
85 96
85 101
85 102
85 127
85 128
85 141
85 146
85 147
85 153
85 163
85 164
85 165
85 171
85 172
85 192
85 250
85 294
85 336
85 615
86 87
86 92
86 100
86 112
86 113
86 114
86 134
86 142
86 173
86 179
87 88
87 92
87 93
87 100
87 113
87 114
87 142
87 242
87 353
88 92
88 93
88 100
88 112
88 114
88 134
88 173
88 179
89 248
89 309
89 332
89 641
89 776
89 777
90 95
90 96
90 101
90 127
90 128
90 141
90 147
90 163
90 164
90 165
90 171
90 234
90 250
90 294
90 342
90 388
90 421
90 466
90 523
90 535
90 561
90 580
90 605
90 621
90 666
90 733
91 732
91 802
91 803
92 93
92 113
92 134
92 142
92 179
93 100
93 112
93 113
93 114
93 142
93 173
93 242
93 353
94 111
94 124
94 133
94 177
94 214
94 237
94 251
94 260
94 290
94 313
94 314
94 330
94 333
94 334
94 343
94 364
94 365
94 375
94 386
94 387
94 409
94 410
94 435
94 472
94 476
94 520
94 522
94 540
94 612
94 634
95 96
95 101
95 127
95 128
95 141
95 146
95 147
95 153
95 163
95 164
95 165
95 171
95 172
95 192
95 271
95 294
95 336
95 449
95 607
95 635
95 899
96 101
96 102
96 127
96 128
96 141
96 146
96 147
96 153
96 163
96 164
96 165
96 171
96 172
96 192
96 294
96 607
97 103
97 104
97 105
97 106
97 107
97 108
97 109
97 110
97 118
97 119
97 120
97 121
97 122
97 129
97 130
97 131
97 132
97 136
97 137
97 138
97 154
97 155
97 166
97 491
98 99
98 135
98 140
98 149
98 182
98 189
98 281
98 282
98 295
98 297
98 298
98 307
98 310
98 327
98 338
98 379
98 532
98 637
98 645
98 646
98 647
98 655
98 696
99 149
99 156
99 206
99 217
99 218
99 231
99 281
99 282
99 296
99 297
99 298
99 344
99 393
99 394
99 419
99 441
99 493
99 532
99 533
99 577
99 578
99 620
99 664
99 665
99 781
99 782
99 995
100 112
100 114
100 134
100 179
101 102
101 127
101 128
101 141
101 146
101 147
101 153
101 163
101 164
101 165
101 171
101 172
101 192
101 250
101 294
101 615
102 127
102 128
102 141
102 146
102 147
102 148
102 153
102 163
102 164
102 172
102 192
102 271
102 287
102 294
102 434
102 607
102 715
103 104
103 105
103 106
103 107
103 108
103 109
103 110
103 118
103 119
103 120
103 121
103 122
103 129
103 130
103 131
103 132
103 136
103 137
103 138
103 154
103 155
103 166
103 180
104 105
104 106
104 107
104 108
104 109
104 110
104 118
104 119
104 120
104 121
104 122
104 129
104 130
104 131
104 132
104 136
104 137
104 138
104 154
104 155
104 166
104 180
105 106
105 107
105 108
105 109
105 110
105 118
105 119
105 120
105 121
105 122
105 129
105 130
105 131
105 132
105 136
105 137
105 138
105 154
105 155
105 166
105 180
106 107
106 108
106 109
106 110
106 118
106 119
106 120
106 121
106 122
106 129
106 130
106 131
106 132
106 136
106 137
106 138
106 154
106 155
106 166
107 108
107 109
107 110
107 118
107 119
107 120
107 121
107 122
107 130
107 131
107 132
107 136
107 137
107 138
107 154
107 155
107 166
107 180
107 414
108 109
108 110
108 118
108 119
108 120
108 121
108 122
108 129
108 130
108 131
108 132
108 136
108 137
108 138
108 154
108 155
108 166
108 180
109 110
109 118
109 119
109 120
109 121
109 122
109 129
109 130
109 131
109 132
109 136
109 137
109 138
109 154
109 155
109 166
110 118
110 119
110 120
110 121
110 122
110 129
110 130
110 131
110 132
110 136
110 137
110 138
110 154
110 155
110 166
110 180
111 123
111 124
111 125
111 133
111 139
111 177
111 216
111 224
111 230
111 237
111 247
111 251
111 275
111 276
111 289
111 313
111 330
111 363
111 364
111 366
111 385
111 408
111 435
111 443
111 516
111 520
112 114
112 173
112 179
112 190
113 142
113 179
113 231
113 321
113 857
114 173
114 242
114 353
115 116
115 161
115 162
115 169
115 175
116 117
116 143
116 145
116 152
116 161
116 175
117 144
117 159
117 169
117 527
118 119
118 120
118 121
118 122
118 129
118 130
118 131
118 132
118 136
118 137
118 138
118 154
118 155
118 166
118 180
119 120
119 121
119 122
119 129
119 130
119 131
119 132
119 136
119 137
119 138
119 154
119 155
119 166
119 180
120 121
120 122
120 129
120 130
120 131
120 132
120 136
120 137
120 154
120 155
120 166
120 180
121 122
121 129
121 130
121 131
121 132
121 136
121 137
121 138
121 154
121 155
121 166
122 129
122 130
122 131
122 132
122 136
122 137
122 138
122 154
122 155
122 166
122 180
123 124
123 170
123 177
123 237
123 276
123 331
123 363
123 364
123 384
123 408
123 435
123 457
123 458
123 459
123 519
123 566
123 713
123 968
124 133
124 177
124 237
124 251
124 260
124 275
124 276
124 313
124 330
124 363
124 364
124 366
124 435
124 505
124 516
124 520
124 726
125 157
125 181
125 195
125 213
125 235
125 236
125 243
125 244
125 257
125 258
125 261
125 268
125 269
125 286
125 326
125 354
125 356
125 358
125 426
125 499
125 553
125 644
126 133
126 170
126 224
126 233
126 249
126 251
126 274
126 275
126 288
126 328
126 329
126 361
126 362
126 382
126 383
126 385
126 405
126 406
126 407
126 436
126 437
126 512
126 565
126 603
126 660
127 128
127 141
127 146
127 147
127 153
127 163
127 164
127 165
127 171
127 172
127 192
127 279
127 294
128 146
128 147
128 153
128 156
128 163
128 164
128 165
128 171
128 172
128 192
128 250
128 294
129 130
129 131
129 132
129 136
129 137
129 138
129 154
129 180
129 182
129 189
130 131
130 132
130 137
130 138
130 154
130 155
130 166
130 180
131 132
131 136
131 137
131 138
131 154
131 155
131 166
131 180
132 136
132 137
132 138
132 154
132 155
132 166
132 180
133 170
133 177
133 237
133 251
133 260
133 275
133 276
133 313
133 363
133 366
133 405
133 406
133 408
133 436
133 437
133 459
133 484
133 493
133 512
133 516
133 520
133 603
133 677
133 701
133 712
134 179
134 325
135 182
135 189
135 229
135 340
135 412
135 439
135 462
135 483
135 541
135 568
135 569
135 585
135 618
136 137
136 138
136 155
136 166
136 180
137 138
137 155
137 166
138 154
138 155
138 166
138 180
139 177
139 193
139 194
139 205
139 208
139 230
139 238
139 247
139 252
139 253
139 262
139 292
139 296
139 299
139 300
139 320
139 369
139 370
139 381
139 430
139 440
139 574
139 575
140 187
140 470
140 625
141 146
141 147
141 148
141 153
141 163
141 165
141 171
141 172
141 192
141 250
141 294
143 145
143 152
143 161
143 162
143 175
144 352
144 661
145 152
145 161
145 162
145 175
146 147
146 153
146 163
146 164
146 165
146 171
146 172
146 192
146 250
146 336
147 164
147 165
147 171
147 173
147 190
147 192
147 294
148 153
148 184
148 393
148 418
148 559
148 573
148 600
149 182
149 189
149 206
149 218
149 242
149 281
149 282
149 297
149 312
149 318
149 360
149 372
149 441
149 448
149 492
149 532
149 758
150 228
150 304
150 367
150 377
150 439
150 536
150 537
150 538
150 564
150 581
150 582
151 158
151 255
151 265
151 639
151 672
152 161
152 162
152 175
153 164
153 165
153 171
153 172
153 192
154 155
154 166
154 180
155 166
155 180
156 209
156 217
156 218
156 231
156 311
156 348
156 349
156 360
156 380
156 411
156 422
156 423
156 501
156 577
156 782
156 861
156 888
156 893
156 914
156 958
157 167
157 181
157 210
157 213
157 219
157 235
157 236
157 240
157 241
157 243
157 244
157 257
157 258
157 263
157 266
157 269
157 286
157 308
157 326
157 354
157 355
157 356
157 357
157 358
157 396
157 444
157 620
157 923
158 178
158 200
158 255
159 169
159 188
159 227
159 232
159 277
159 324
159 398
160 482
160 490
160 840
160 855
161 162
161 175
162 175
163 164
163 165
163 171
163 172
163 183
163 192
163 294
164 165
164 171
164 172
164 192
164 250
164 294
165 171
165 172
165 192
165 250
165 336
166 180
167 168
167 186
167 210
167 211
167 219
167 240
167 241
167 254
167 263
167 266
167 303
167 347
167 396
167 444
168 186
168 210
168 219
168 240
168 254
168 263
168 266
168 283
168 530
169 188
169 227
169 232
169 277
169 315
169 324
169 335
169 398
170 225
170 252
170 289
170 331
170 384
170 405
170 406
170 436
170 437
170 458
170 459
170 460
170 484
170 512
170 603
170 654
170 712
170 768
170 983
171 172
171 192
171 455
172 192
172 353
173 179
173 420
174 256
174 285
174 478
174 507
174 558
174 583
174 629
174 650
174 741
174 833
176 190
176 198
176 201
176 202
176 223
176 245
176 273
176 278
176 544
177 237
177 251
177 260
177 275
177 276
177 313
177 330
177 363
177 364
177 408
177 435
177 440
177 516
177 519
177 574
177 575
178 195
178 196
178 200
178 255
178 261
178 425
178 539
181 213
181 235
181 236
181 243
181 244
181 257
181 258
181 269
181 286
181 308
181 326
181 354
181 355
181 356
181 357
181 358
181 426
181 447
181 491
182 189
182 206
182 218
182 222
182 295
182 310
182 312
182 327
182 338
182 346
182 359
182 360
182 372
182 379
182 448
182 515
183 190
183 191
183 271
183 287
183 376
183 404
183 743
184 201
184 245
184 502
184 559
184 673
185 449
185 783
186 210
186 211
186 219
186 226
186 241
186 254
186 303
186 524
186 619
186 993
187 735
187 973
188 232
188 324
188 697
189 206
189 218
189 222
189 295
189 310
189 312
189 327
189 338
189 346
189 359
189 360
189 379
189 483
189 515
190 198
190 273
190 278
190 279
190 657
191 239
191 316
191 389
191 554
191 757
192 455
193 194
193 203
193 205
193 208
193 233
193 252
193 253
193 299
193 300
193 306
193 320
193 350
193 369
193 427
193 450
193 451
193 745
194 203
194 205
194 207
194 208
194 252
194 253
194 262
194 299
194 300
194 320
194 369
194 370
194 872
194 873
195 204
195 220
195 264
195 268
195 373
196 197
196 200
196 255
196 261
196 424
196 468
196 495
197 443
198 395
198 482
198 657
199 266
199 322
199 397
199 400
199 474
199 690
200 424
200 539
201 245
202 207
202 223
202 352
202 366
202 965
203 205
203 208
203 233
203 252
203 253
203 262
203 299
203 300
203 306
203 320
203 350
203 369
203 427
203 450
203 451
203 475
204 212
204 220
204 264
204 268
204 374
204 480
204 498
204 553
205 208
205 252
205 253
205 262
205 264
205 300
205 369
205 401
205 430
205 451
205 498
205 692
205 939
206 231
206 279
206 312
206 359
206 360
206 372
206 455
206 558
206 577
206 604
206 681
206 730
206 869
207 216
207 292
207 319
207 343
207 366
207 464
207 490
207 872
208 252
208 253
208 262
208 299
208 300
208 319
208 320
208 369
208 370
208 451
208 475
208 490
208 745
208 820
209 217
209 231
209 311
209 349
209 411
209 422
209 423
209 501
209 525
209 526
209 571
210 211
210 219
210 240
210 241
210 254
210 263
210 303
210 444
211 219
211 240
211 241
211 254
211 263
211 266
211 303
211 396
211 444
212 373
212 468
212 480
212 553
213 235
213 236
213 243
213 244
213 258
213 261
213 269
213 286
213 308
213 326
213 354
213 355
213 356
213 357
213 358
213 426
213 447
214 290
214 314
214 333
214 334
214 365
214 375
214 386
214 387
214 409
214 410
214 438
214 476
215 270
215 293
215 433
215 454
215 524
216 230
216 234
216 237
216 238
216 247
216 292
216 296
216 301
216 361
216 381
216 510
216 601
216 688
216 762
216 797
217 231
217 272
217 311
217 348
217 349
217 411
217 422
217 423
217 517
217 525
217 526
218 272
218 311
218 312
218 348
218 360
218 372
218 380
218 413
218 517
218 528
218 611
219 241
219 254
219 263
219 266
219 303
219 396
219 530
219 875
219 876
220 268
220 374
220 480
220 911
221 337
221 675
221 702
222 295
222 307
222 310
222 327
222 338
222 346
222 379
222 515
222 792
222 793
224 225
224 284
224 289
224 385
224 587
224 660
224 680
224 768
224 824
224 864
224 865
224 961
225 289
225 291
225 296
225 351
225 385
225 460
225 518
225 614
225 632
225 633
225 653
225 807
225 808
225 809
225 810
225 815
226 273
226 433
226 454
227 232
227 277
227 315
227 335
228 367
229 340
229 368
229 658
230 234
230 238
230 280
230 292
230 296
230 301
230 340
230 381
230 602
230 612
230 866
231 272
231 305
231 311
231 321
231 348
231 422
231 423
231 455
231 501
231 577
232 277
232 315
232 324
232 335
232 579
233 249
233 288
233 306
233 350
233 361
233 427
233 428
233 450
233 506
234 284
234 292
234 342
234 343
234 421
234 466
234 523
234 561
234 605
234 617
234 695
234 846
234 963
235 236
235 243
235 244
235 257
235 258
235 261
235 269
235 286
235 308
235 326
235 355
235 356
235 357
235 358
236 243
236 244
236 257
236 261
236 269
236 308
236 354
236 355
236 356
236 357
236 358
236 447
236 499
237 251
237 260
237 276
237 330
237 364
237 649
238 292
238 296
238 301
238 381
238 479
238 510
238 572
238 713
238 862
238 863
238 944
238 945
238 946
238 992
239 316
239 337
239 389
239 486
240 241
240 254
240 263
240 266
240 303
240 396
241 254
241 263
241 266
241 303
241 396
241 530
242 287
242 312
242 353
242 563
242 598
243 244
243 257
243 258
243 269
243 308
243 326
243 426
243 447
243 499
243 644
244 257
244 258
244 269
244 308
244 326
244 354
244 355
244 356
244 358
244 499
245 273
245 485
246 378
246 402
246 403
246 431
246 432
246 453
246 511
246 551
246 560
246 943
247 292
247 296
247 301
247 381
247 576
247 636
247 679
247 693
247 724
247 779
247 780
247 798
247 800
248 584
249 274
249 275
249 288
249 328
249 329
249 361
249 362
249 382
249 383
249 407
250 336
251 260
251 313
251 385
251 408
251 685
251 686
251 731
251 760
251 895
252 299
252 300
252 320
252 430
252 451
253 262
253 299
253 300
253 319
253 320
253 369
253 370
253 430
253 451
254 303
254 444
254 530
255 261
256 285
256 507
256 583
256 629
256 650
256 741
256 833
257 258
257 269
257 326
257 354
257 356
257 358
258 269
258 286
258 308
258 326
258 355
258 357
258 426
258 447
259 267
259 282
259 302
259 544
260 275
260 276
260 313
260 330
260 363
260 364
260 403
260 435
260 516
260 811
262 299
262 320
262 369
262 370
262 430
262 896
263 266
263 347
263 640
264 401
264 498
264 638
264 692
265 639
266 347
266 998
267 544
269 286
269 308
269 326
269 354
269 355
269 357
270 293
271 279
271 287
271 404
271 635
271 678
271 947
272 348
272 349
272 360
272 380
272 411
272 422
272 423
272 478
272 501
273 652
274 275
274 288
274 328
274 329
274 361
274 362
274 382
274 383
274 407
275 288
275 313
275 329
275 363
275 383
275 516
275 989
276 330
276 331
276 364
276 437
276 457
276 458
276 484
276 519
276 566
277 315
277 335
278 395
278 420
279 287
279 393
279 404
279 558
279 664
279 730
279 794
279 869
279 929
281 282
281 297
281 298
281 344
282 297
282 298
282 344
282 441
282 532
282 544
284 301
284 518
285 380
285 598
286 308
286 326
286 357
286 358
286 426
286 499
287 393
287 404
287 678
287 932
288 328
288 329
288 361
288 362
288 382
288 383
288 407
288 518
289 385
289 460
289 566
289 614
289 815
289 904
290 314
290 333
290 334
290 365
290 375
290 386
290 401
290 410
290 476
290 540
291 317
291 351
291 463
291 487
291 488
291 589
291 599
292 296
292 301
292 343
292 361
292 688
292 819
295 307
295 310
295 327
295 338
295 346
295 379
295 636
295 663
296 301
296 381
296 394
296 419
296 493
296 572
296 578
296 798
297 298
297 323
297 489
297 532
297 627
297 736
298 318
298 344
298 489
298 492
299 300
299 320
299 370
299 430
300 320
300 369
300 370
300 775
300 868
301 381
301 531
301 823
301 996
302 535
303 530
304 377
304 536
304 537
304 538
304 581
304 582
305 321
305 371
306 350
306 427
306 450
306 626
307 310
307 327
307 338
307 346
307 379
307 682
307 746
308 355
308 356
308 357
308 358
310 327
310 338
311 348
311 349
311 380
311 411
311 422
311 423
311 501
312 360
312 372
312 448
312 758
313 363
313 516
313 519
313 520
314 333
314 334
314 365
314 375
314 386
314 387
314 409
314 410
314 438
314 476
314 540
315 335
315 579
316 337
316 389
316 486
317 463
317 487
317 488
318 344
318 441
318 481
318 514
318 606
319 490
320 369
320 370
320 475
321 371
321 509
322 880
323 465
324 398
325 550
326 354
327 338
327 346
327 379
328 329
328 362
328 384
328 407
328 414
328 613
329 361
329 362
329 382
329 383
329 407
330 331
330 408
330 516
331 457
331 458
331 566
331 771
332 832
333 334
333 365
333 375
333 386
333 387
333 409
333 410
333 476
333 540
334 365
334 375
334 386
334 387
334 409
334 410
334 438
334 540
335 579
336 446
336 449
337 389
337 554
337 675
338 346
338 379
338 515
339 415
339 416
339 417
339 418
339 529
339 832
340 368
341 795
342 388
342 421
342 442
342 466
342 523
342 580
342 605
342 733
343 421
343 464
343 466
343 490
343 523
343 561
344 616
345 376
345 871
346 379
346 515
347 640
348 360
348 380
348 411
348 422
348 423
348 501
348 669
348 729
349 411
349 422
349 423
349 501
349 951
350 370
350 427
350 428
350 450
350 506
351 589
351 590
351 599
351 699
351 700
351 706
351 707
351 708
352 630
354 499
354 644
355 356
355 357
355 358
356 357
356 426
356 447
357 358
359 372
359 448
359 477
359 500
359 502
359 503
359 591
359 756
360 372
360 380
360 411
360 448
361 362
361 382
362 382
362 383
362 407
363 366
363 435
363 457
363 519
364 408
364 435
364 969
365 375
365 386
365 387
365 409
365 410
365 438
365 476
366 381
366 436
366 459
366 519
366 651
366 964
369 370
369 430
370 428
370 430
371 509
372 448
373 631
375 386
375 387
375 409
375 438
375 540
376 456
376 510
376 552
376 835
377 537
377 538
378 402
378 431
378 432
378 452
378 453
378 511
378 513
378 560
378 562
380 411
381 610
381 821
381 925
382 383
382 407
383 407
384 414
384 460
384 613
385 660
385 864
385 865
386 387
386 409
386 410
386 438
387 409
387 410
387 438
387 476
388 421
388 442
388 466
388 523
388 570
389 486
390 490
390 761
390 778
390 849
391 442
391 446
391 917
392 570
392 705
392 739
392 740
393 453
393 559
393 604
393 652
393 665
394 419
394 493
394 578
394 620
394 711
394 764
394 765
394 766
394 851
395 534
397 424
397 445
397 497
397 690
399 543
399 594
399 747
399 748
399 812
400 474
400 753
401 592
402 431
402 432
402 452
402 453
402 511
402 513
402 562
404 563
404 714
405 406
405 436
405 437
405 459
405 484
405 512
405 603
405 677
406 436
406 437
406 459
406 484
406 512
406 654
406 712
408 435
409 410
409 438
410 438
411 422
411 423
413 528
413 611
413 822
413 879
413 954
414 613
414 924
414 927
415 416
415 417
415 418
415 529
416 417
416 418
417 418
418 529
419 493
419 578
419 620
419 711
419 764
419 765
419 766
419 831
421 442
421 466
421 523
421 535
421 666
422 423
424 497
425 495
425 521
425 539
426 447
426 644
427 428
427 450
427 506
428 506
428 734
429 510
429 710
429 761
429 762
429 773
429 850
429 977
429 978
430 451
430 638
431 432
431 452
431 453
431 511
431 513
431 562
432 452
432 511
432 560
432 562
433 454
433 586
434 641
435 457
436 437
436 484
436 512
436 654
437 484
437 565
438 476
439 462
439 536
439 564
439 569
439 581
439 585
440 574
440 575
440 752
440 830
441 492
441 630
441 718
442 535
442 561
442 580
442 605
442 621
443 469
444 530
445 496
445 497
445 668
445 997
447 644
448 477
448 500
449 715
452 453
452 511
452 513
452 562
453 511
453 560
455 604
455 934
456 813
456 814
456 849
456 906
456 907
457 458
457 460
457 566
457 614
458 566
459 484
459 603
460 705
462 541
462 568
462 569
462 585
462 618
463 487
463 488
464 613
464 617
466 481
466 523
466 561
467 593
467 628
467 667
467 670
467 671
467 683
471 549
471 625
472 522
472 634
472 791
472 796
473 806
477 500
479 572
479 834
481 600
482 979
483 753
485 720
486 554
487 488
489 532
493 578
493 620
493 887
493 916
494 586
494 785
494 786
494 787
495 521
495 744
496 668
497 690
498 886
502 503
502 559
502 591
502 756
503 591
503 756
504 588
504 684
504 760
505 698
506 734
510 762
510 843
511 513
512 677
513 560
513 767
514 517
514 606
517 606
518 632
518 633
518 653
519 520
521 567
521 622
521 623
521 744
522 634
522 791
522 867
523 561
524 619
525 526
525 571
526 571
527 817
528 611
531 684
531 853
531 854
531 871
531 933
533 557
533 829
533 918
533 919
535 580
535 621
535 666
535 788
536 564
536 581
536 582
537 538
541 568
541 618
542 688
542 894
543 594
543 747
543 748
544 689
544 827
545 546
545 547
546 547
548 648
548 837
549 625
551 755
551 838
551 839
552 648
553 712
557 767
557 891
557 903
557 941
558 704
559 600
560 562
561 580
563 714
564 581
567 622
567 623
568 569
569 618
570 651
570 705
572 778
572 936
572 937
573 912
574 575
576 663
576 724
576 751
576 780
577 604
578 620
578 811
579 874
580 621
581 582
583 629
587 680
588 685
588 709
589 590
589 599
590 599
592 926
593 670
593 683
593 749
595 722
595 955
596 642
597 649
597 694
602 763
603 654
604 655
605 733
609 716
609 985
610 957
611 956
612 859
616 630
616 659
616 718
619 975
621 666
621 788
622 623
626 727
626 728
627 672
627 736
627 804
628 671
631 806
632 633
632 653
632 805
633 653
633 805
634 796
635 678
635 902
636 679
636 821
637 949
642 728
642 734
643 673
643 962
645 646
645 647
646 647
648 797
648 837
649 844
649 967
651 705
653 982
656 858
659 718
662 857
663 724
663 779
663 780
664 794
664 892
664 921
665 856
665 953
666 788
669 729
670 749
675 702
676 710
676 931
678 922
679 800
681 730
681 882
682 746
683 749
684 826
685 709
686 731
689 920
691 750
693 900
693 959
694 844
695 801
695 885
699 700
701 719
701 848
701 938
704 974
706 707
706 708
707 708
709 731
710 850
711 831
711 836
717 813
717 814
719 905
722 737
723 845
723 976
724 751
725 950
725 994
726 784
727 728
736 804
737 738
737 909
738 928
738 930
739 740
741 940
745 868
746 890
747 748
750 828
751 779
752 830
764 851
765 766
767 852
769 935
770 986
770 987
772 818
772 870
776 777
778 870
781 856
785 786
785 787
786 787
792 793
799 901
801 913
802 803
807 808
809 810
836 960
838 839
841 966
846 970
847 848
853 854
855 984
862 863
875 876
878 999
